n_res = 4;
rcap = [40, 34, 156, 163];
rtype = [1, 1, 2, 2];
n_tasks = 30;
modes = [ {1, 2, 3}, {4, 5, 6}, {7, 8, 9}, {10, 11, 12}, {13, 14, 15}, {16, 17, 18}, {19, 20, 21}, {22, 23, 24}, {25, 26, 27}, {28, 29, 30}, {31, 32, 33}, {34, 35, 36}, {37, 38, 39}, {40, 41, 42}, {43, 44, 45}, {46, 47, 48}, {49, 50, 51}, {52, 53, 54}, {55, 56, 57}, {58, 59, 60}, {61, 62, 63}, {64, 65, 66}, {67, 68, 69}, {70, 71, 72}, {73, 74, 75}, {76, 77, 78}, {79, 80, 81}, {82, 83, 84}, {85, 86, 87}, {88, 89, 90} ];
succ = [ {12, 13, 16}, {4, 6, 7}, {19}, {5, 9, 26}, {14, 21}, {11, 26}, {8, 13, 17}, {10, 11, 20}, {17, 18, 22}, {15, 18}, {19}, {24}, {23}, {15, 22, 24}, {25}, {18, 19, 25}, {23}, {24, 30}, {21, 29}, {30}, {28}, {23, 25}, {27, 28, 29}, {28, 29}, {27}, {27}, {30}, {}, {}, {} ];
n_opt = 90;
dur = [3, 7, 8, 4, 4, 9, 1, 7, 7, 2, 4, 7, 1, 2, 5, 2, 5, 7, 4, 4, 7, 2, 5, 7, 5, 5, 10, 4, 7, 8, 1, 2, 10, 2, 5, 10, 3, 6, 8, 1, 5, 6, 2, 9, 10, 4, 6, 7, 4, 5, 9, 5, 6, 9, 1, 6, 7, 1, 5, 9, 2, 3, 9, 1, 2, 3, 1, 2, 3, 3, 4, 7, 1, 4, 6, 3, 4, 9, 1, 9, 10, 3, 5, 6, 1, 7, 9, 3, 3, 10];
rreq = [|  0,  0,  0,  0,  5,  0,  0, 10,  0,  7,  0,  6,  8,  6,  6,  4,  4,  0,  0,  6,  2,  0,  6,  5,  0,  0,  0,  0,  5,  0,  2,  2,  1,  8,  8,  8,  8,  5,  0,  0,  0,  0,  0,  7,  6,  5,  0,  0,  0,  6,  3,  8,  0,  7,  3,  0,  1,  6,  0,  4,  0,  0,  9,  0,  6,  2,  0,  0,  0,  0,  0,  7,  0,  0,  1,  3,  3,  2,  0,  3,  3,  0,  0,  4,  0,  0,  6,  4,  6,  0
        |  5,  3,  3, 10,  0, 10,  8,  0,  8,  0,  6,  0,  0,  0,  0,  0,  0,  8, 10,  0,  0,  6,  0,  0,  9, 10,  3,  3,  0,  2,  0,  0,  0,  0,  0,  0,  0,  0,  3,  7,  6,  3,  4,  0,  0,  0,  7,  4,  3,  0,  0,  0,  4,  0,  0,  3,  0,  0,  3,  0,  9,  4,  0,  6,  0,  0,  7,  5,  3, 10,  8,  0,  5,  4,  0,  0,  0,  0,  5,  0,  0,  9,  8,  0,  8,  7,  0,  0,  0,  6
        | 10,  8,  5,  2,  2,  1,  6,  6,  6,  2,  2,  1,  5,  3,  3, 10,  9,  9,  8,  9,  7,  4,  4,  3,  7,  6,  4, 10,  7,  6,  7,  5,  2,  9,  8,  8,  6,  5,  3,  7,  6,  5, 10, 10,  9,  5,  5,  4,  7,  6,  5,  4,  3,  3,  6,  5,  3,  4,  3,  3,  4,  3,  3,  6,  5,  3,  6,  6,  6,  4,  3,  3,  5,  4,  2,  6,  5,  4,  4,  3,  1,  5,  5,  3,  6,  5,  5,  9,  9,  7
        |  7,  7,  6,  5,  7,  5,  4,  3,  3,  6,  3,  2,  9,  7,  6,  7,  7,  6,  6,  6,  6,  6,  4,  4,  9,  9,  7,  9,  7,  5,  8,  8,  7,  7,  7,  5,  7,  7,  6,  2,  2,  1,  5,  4,  3,  7,  7,  5,  9,  6,  5,  6,  4,  1,  6,  6,  5,  3,  3,  2,  7,  6,  4,  6,  6,  6,  7,  5,  5,  6,  6,  2,  5,  4,  2,  5,  4,  3,  3,  3,  2,  7,  7,  6,  9,  8,  4,  9,  8,  8 |];
